set VV := 0 1 2 3 4 5 6 7 8 9 10 11 12 13 14 15 16 17 18 19 20 21 22 23 24 25 26 27 28 29 30 31 32 33 34 35 ;
set VS := 0 1 2 3 4 5 6 7 8 9 10 11 12 13 14 15 16 17 18 19 20 21 22 23 24 25 26 27 28 29 30 31 32 33 34 35 36 37 38 39 40 41 42 43 44 45 46 47 48 49 50 51 52 53 54 55 56 57 58 59 60 61 62 63 64 65 66 67 68 69 70 71 72 73 74 75 ;
param cv := 
0 24
1 16
2 14
3 12
4 18
5 10
6 11
7 13
8 16
9 25
10 19
11 15
12 11
13 17
14 10
15 24
16 24
17 17
18 16
19 13
20 15
21 11
22 12
23 19
24 24
25 23
26 16
27 25
28 24
29 15
30 13
31 21
32 10
33 13
34 10
35 16
;
param cs := 
0 26
1 32
2 32
3 28
4 30
5 22
6 27
7 30
8 24
9 33
10 35
11 30
12 33
13 36
14 40
15 28
16 23
17 31
18 28
19 34
20 27
21 28
22 23
23 20
24 37
25 24
26 29
27 26
28 38
29 34
30 32
31 39
32 29
33 35
34 35
35 22
36 28
37 40
38 22
39 38
40 25
41 21
42 40
43 28
44 24
45 20
46 28
47 36
48 30
49 35
50 30
51 32
52 37
53 33
54 29
55 26
56 40
57 34
58 37
59 36
60 24
61 33
62 34
63 40
64 32
65 23
66 32
67 21
68 24
69 32
70 21
71 26
72 39
73 34
74 23
75 37
;
param bv:	 0 1 2 3 4 5 6 7 8 9 10 11 12 13 14 15 16 17 18 19 20 21 22 23 24 25 26 27 28 29 30 31 32 33 34 35 := 
		0 0 0 0 0 16 0 0 0 0 0 0 17 0 0 0 25 0 0 0 0 0 0 21 0 0 0 13 15 0 0 0 0 0 12 0 24 
		1 0 0 0 0 0 0 0 0 0 0 25 12 19 22 0 0 0 0 0 0 23 0 0 0 0 0 0 0 0 0 17 0 0 0 0 24 
		2 0 0 0 17 0 0 0 0 0 0 0 0 0 10 0 0 0 0 0 0 0 0 0 0 0 0 0 0 0 0 14 0 0 14 0 0 
		3 0 0 0 0 0 0 0 0 0 0 0 0 0 0 0 0 0 0 0 0 0 0 0 0 0 0 0 15 17 0 0 0 0 0 0 24 
		4 0 0 0 0 0 0 0 0 0 0 0 0 0 19 0 15 0 0 0 22 0 0 0 0 0 0 0 0 0 0 0 0 0 0 0 17 
		5 0 0 0 0 0 0 0 0 0 0 0 0 0 0 0 0 0 0 0 0 0 0 0 0 17 0 0 0 0 0 0 0 0 0 0 0 
		6 0 0 0 0 0 0 0 0 0 0 0 0 0 0 0 0 0 0 0 0 0 23 0 0 0 0 0 0 0 0 0 0 0 0 16 0 
		7 0 0 0 0 0 0 0 0 0 0 0 0 24 0 0 22 0 0 0 0 0 22 0 13 0 0 11 0 0 0 0 0 0 0 0 0 
		8 0 0 0 0 0 0 0 0 0 0 0 18 0 0 0 0 0 0 0 0 0 0 0 0 0 0 0 0 0 0 0 18 11 0 0 0 
		9 0 0 0 0 0 0 0 0 0 0 0 0 0 19 0 0 0 0 18 0 0 0 0 0 0 0 0 0 0 0 0 0 0 12 0 0 
		10 0 0 0 0 0 0 0 0 0 0 0 0 0 0 0 0 0 0 0 0 0 0 0 0 11 0 0 0 0 0 0 0 0 0 0 0 
		11 0 0 0 0 0 0 0 0 0 0 0 0 0 0 0 0 0 0 0 0 0 0 0 0 0 0 0 0 0 0 0 0 11 0 0 0 
		12 0 0 0 0 0 0 0 0 0 0 0 0 0 0 0 16 0 0 0 0 24 0 0 0 0 0 0 0 0 0 0 0 0 10 0 0 
		13 0 0 0 0 0 0 0 0 0 0 0 0 0 0 0 0 0 0 0 0 0 0 10 0 0 0 0 0 0 0 0 0 0 0 0 23 
		14 0 0 0 0 0 0 0 0 0 0 0 0 0 0 0 0 0 0 14 0 0 0 0 0 0 20 0 0 0 0 0 17 0 0 0 16 
		15 0 0 0 0 0 0 0 0 0 0 0 0 0 0 0 0 0 0 16 16 0 0 0 0 25 0 0 0 0 0 0 12 0 0 0 0 
		16 0 0 0 0 0 0 0 0 0 0 0 0 0 0 0 0 0 0 0 0 0 0 0 0 0 0 23 0 20 0 0 0 0 0 14 0 
		17 0 0 0 0 0 0 0 0 0 0 0 0 0 0 0 0 0 0 0 0 0 0 0 0 0 19 0 0 0 0 0 0 0 0 0 0 
		18 0 0 0 0 0 0 0 0 0 0 0 0 0 0 0 0 0 0 0 0 0 0 0 0 0 0 0 0 0 0 0 0 0 0 19 0 
		19 0 0 0 0 0 0 0 0 0 0 0 0 0 0 0 0 0 0 0 0 0 0 0 0 0 0 14 24 0 0 0 0 23 0 0 0 
		20 0 0 0 0 0 0 0 0 0 0 0 0 0 0 0 0 0 0 0 0 0 0 0 0 0 0 0 0 0 0 0 15 13 0 0 0 
		21 0 0 0 0 0 0 0 0 0 0 0 0 0 0 0 0 0 0 0 0 0 0 0 0 0 0 0 0 0 0 0 0 24 0 20 0 
		22 0 0 0 0 0 0 0 0 0 0 0 0 0 0 0 0 0 0 0 0 0 0 0 0 0 0 0 20 0 0 0 0 0 20 0 0 
		23 0 0 0 0 0 0 0 0 0 0 0 0 0 0 0 0 0 0 0 0 0 0 0 0 0 0 0 0 0 0 11 0 0 0 0 0 
		24 0 0 0 0 0 0 0 0 0 0 0 0 0 0 0 0 0 0 0 0 0 0 0 0 0 0 16 0 0 0 18 0 0 0 0 0 
		25 0 0 0 0 0 0 0 0 0 0 0 0 0 0 0 0 0 0 0 0 0 0 0 0 0 0 0 0 0 16 0 0 20 0 0 23 
		26 0 0 0 0 0 0 0 0 0 0 0 0 0 0 0 0 0 0 0 0 0 0 0 0 0 0 0 0 12 0 0 10 0 0 0 0 
		27 0 0 0 0 0 0 0 0 0 0 0 0 0 0 0 0 0 0 0 0 0 0 0 0 0 0 0 0 0 0 0 0 0 12 0 0 
		28 0 0 0 0 0 0 0 0 0 0 0 0 0 0 0 0 0 0 0 0 0 0 0 0 0 0 0 0 0 0 0 0 0 0 0 0 
		29 0 0 0 0 0 0 0 0 0 0 0 0 0 0 0 0 0 0 0 0 0 0 0 0 0 0 0 0 0 0 0 21 0 0 0 16 
		30 0 0 0 0 0 0 0 0 0 0 0 0 0 0 0 0 0 0 0 0 0 0 0 0 0 0 0 0 0 0 0 0 21 0 0 0 
		31 0 0 0 0 0 0 0 0 0 0 0 0 0 0 0 0 0 0 0 0 0 0 0 0 0 0 0 0 0 0 0 0 0 0 0 0 
		32 0 0 0 0 0 0 0 0 0 0 0 0 0 0 0 0 0 0 0 0 0 0 0 0 0 0 0 0 0 0 0 0 0 0 0 0 
		33 0 0 0 0 0 0 0 0 0 0 0 0 0 0 0 0 0 0 0 0 0 0 0 0 0 0 0 0 0 0 0 0 0 0 0 0 
		34 0 0 0 0 0 0 0 0 0 0 0 0 0 0 0 0 0 0 0 0 0 0 0 0 0 0 0 0 0 0 0 0 0 0 0 0 
		35 0 0 0 0 0 0 0 0 0 0 0 0 0 0 0 0 0 0 0 0 0 0 0 0 0 0 0 0 0 0 0 0 0 0 0 0 
;
param bs:	 0 1 2 3 4 5 6 7 8 9 10 11 12 13 14 15 16 17 18 19 20 21 22 23 24 25 26 27 28 29 30 31 32 33 34 35 36 37 38 39 40 41 42 43 44 45 46 47 48 49 50 51 52 53 54 55 56 57 58 59 60 61 62 63 64 65 66 67 68 69 70 71 72 73 74 75 := 
		0 0 32 0 0 0 0 0 0 0 0 0 0 0 0 0 0 0 0 35 0 35 0 0 32 0 0 0 23 0 36 0 0 0 0 0 0 0 0 0 0 0 22 0 0 34 0 0 23 0 0 0 0 0 0 0 0 0 0 20 0 0 0 32 0 0 0 0 0 0 0 32 0 0 0 0 0 
		1 32 0 0 0 0 0 0 0 0 0 0 0 0 34 0 0 0 0 0 0 0 0 31 36 0 0 0 0 0 0 0 0 0 21 0 0 0 0 0 32 0 34 0 21 28 0 0 0 0 0 0 0 0 0 0 0 0 31 0 24 0 0 0 0 0 0 0 0 0 0 0 0 0 36 0 0 
		2 0 0 0 0 0 0 0 0 0 0 0 24 0 0 0 0 0 0 29 0 0 21 0 0 0 0 20 0 0 0 0 0 0 0 0 0 36 0 0 0 0 27 0 27 0 26 0 0 0 0 20 0 0 0 0 0 0 0 0 0 23 0 0 0 0 0 20 0 0 21 0 0 0 0 0 0 
		3 0 0 0 0 0 0 0 0 27 30 0 0 0 0 0 0 0 0 0 0 0 0 0 0 0 0 0 0 0 39 0 0 0 0 0 0 0 0 0 0 0 0 28 0 0 0 0 0 0 0 0 0 0 0 0 0 0 0 0 0 0 0 0 0 0 0 0 0 0 0 0 0 0 0 0 34 
		4 0 0 0 0 0 0 0 0 0 0 29 0 0 0 0 0 0 0 0 0 0 0 0 0 0 0 0 0 0 0 0 0 36 0 0 0 0 0 0 36 0 0 0 0 0 0 0 29 0 0 0 0 0 0 0 0 0 0 0 0 0 0 0 0 0 0 0 0 0 0 0 0 20 0 0 0 
		5 0 0 0 0 0 0 0 0 0 0 0 0 0 0 32 0 0 0 0 0 0 0 0 39 26 0 0 0 0 0 0 0 0 21 0 0 0 0 0 0 0 0 0 0 0 0 0 0 0 0 0 0 0 0 0 0 0 0 0 0 0 0 0 26 0 0 0 0 0 0 0 0 0 0 0 0 
		6 0 0 0 0 0 0 0 0 37 0 0 0 0 0 0 0 0 0 35 0 23 0 0 0 0 40 0 39 0 0 0 0 0 0 0 0 0 27 0 0 0 0 0 0 0 0 0 0 0 0 23 0 0 0 0 0 0 0 0 0 0 0 0 0 0 0 0 32 0 0 0 0 0 0 0 0 
		7 0 0 0 0 0 0 0 0 0 0 0 0 0 0 0 0 0 0 0 0 0 0 0 0 0 0 0 0 0 0 0 0 0 21 0 0 39 0 0 0 0 0 0 39 0 27 0 0 0 35 39 35 21 0 0 0 0 0 0 0 0 0 0 0 0 0 0 0 0 0 23 0 0 0 0 0 
		8 0 0 0 27 0 0 37 0 0 0 0 0 0 0 0 0 0 0 38 0 0 0 0 22 0 0 0 0 0 0 0 0 0 0 0 0 0 0 0 0 0 0 0 28 0 0 0 0 0 0 0 0 0 0 0 0 0 0 0 37 0 0 0 0 0 34 0 0 0 0 0 0 0 0 38 36 
		9 0 0 0 30 0 0 0 0 0 0 0 0 0 0 0 0 0 0 0 0 0 0 0 0 0 0 0 0 0 29 0 0 0 0 0 0 0 0 0 0 0 0 0 0 24 0 0 0 0 0 0 0 0 0 0 0 0 0 0 0 0 0 29 0 0 0 0 0 0 0 0 0 0 0 0 0 
		10 0 0 0 0 29 0 0 0 0 0 0 0 0 23 0 0 32 0 0 0 0 0 0 0 0 0 0 0 0 0 0 0 0 0 0 0 0 0 0 0 0 0 0 0 0 0 0 36 0 0 0 0 0 0 0 35 0 0 0 0 0 22 29 0 27 0 40 0 0 0 0 0 0 0 0 0 
		11 0 0 24 0 0 0 0 0 0 0 0 0 29 0 0 0 0 0 0 0 0 0 0 0 0 22 0 22 0 0 0 0 0 0 0 0 0 0 0 0 0 0 0 0 0 0 39 0 0 0 0 0 0 0 38 0 0 0 0 0 0 0 0 0 0 0 0 0 0 0 0 37 0 0 0 0 
		12 0 0 0 0 0 0 0 0 0 0 0 29 0 0 0 40 0 0 0 0 0 0 0 0 0 0 0 0 0 0 23 0 0 0 0 0 0 0 0 0 0 0 0 0 0 0 0 0 0 0 0 0 0 0 0 0 0 0 0 37 0 0 0 0 0 0 0 0 0 0 0 0 0 0 0 0 
		13 0 34 0 0 0 0 0 0 0 0 23 0 0 0 0 0 30 0 0 0 0 0 0 0 0 0 0 0 0 0 0 0 0 0 0 0 0 0 0 0 0 0 0 0 0 0 0 0 0 0 0 20 0 0 0 40 0 0 0 0 0 0 0 0 0 0 0 0 0 0 0 0 0 0 0 0 
		14 0 0 0 0 0 32 0 0 0 0 0 0 0 0 0 0 0 0 0 0 0 0 0 0 0 0 22 0 0 0 0 0 0 0 0 0 0 0 0 0 0 33 0 0 0 0 0 33 0 0 25 35 0 0 0 0 37 0 0 0 28 0 0 0 0 0 0 0 0 0 0 0 0 0 34 0 
		15 0 0 0 0 0 0 0 0 0 0 0 0 40 0 0 0 0 0 0 0 0 0 0 0 0 39 26 0 0 0 0 0 0 0 0 0 0 0 0 0 0 0 0 0 0 34 0 0 0 36 0 0 0 0 0 0 0 0 0 30 0 0 28 0 22 0 0 34 0 0 0 38 0 0 0 0 
		16 0 0 0 0 0 0 0 0 0 0 32 0 0 30 0 0 0 0 0 0 0 0 21 0 0 0 0 0 0 0 0 27 0 0 0 0 0 0 0 0 25 0 0 0 0 0 0 0 0 0 22 0 0 25 0 30 0 26 27 0 0 0 0 29 0 0 21 0 0 0 0 0 0 0 0 0 
		17 0 0 0 0 0 0 0 0 0 0 0 0 0 0 0 0 0 0 0 0 0 0 0 0 0 0 33 0 36 0 0 0 0 0 20 0 0 0 39 0 0 0 0 0 0 0 0 0 0 0 40 0 0 0 0 0 0 0 21 0 0 0 0 0 0 35 0 0 0 20 0 0 0 0 0 0 
		18 35 0 29 0 0 0 35 0 38 0 0 0 0 0 0 0 0 0 0 0 0 0 0 0 0 0 0 0 34 0 0 0 0 0 0 0 0 0 0 0 0 0 0 0 0 0 0 0 0 0 31 0 0 0 0 23 0 0 0 0 0 0 0 0 0 0 0 0 0 0 0 0 0 0 0 27 
		19 0 0 0 0 0 0 0 0 0 0 0 0 0 0 0 0 0 0 0 0 33 0 0 0 0 31 0 0 0 21 0 0 0 0 0 0 0 0 0 0 0 0 0 0 0 0 0 0 0 35 0 0 35 0 0 0 0 0 0 0 0 0 26 0 0 0 0 0 0 0 0 21 0 32 0 0 
		20 35 0 0 0 0 0 23 0 0 0 0 0 0 0 0 0 0 0 0 33 0 0 0 25 37 35 33 0 0 0 0 0 0 0 0 0 0 0 0 0 0 0 0 34 0 0 0 36 0 0 40 0 0 0 0 0 36 24 0 0 0 0 28 0 0 0 0 0 0 0 0 0 0 0 0 0 
		21 0 0 21 0 0 0 0 0 0 0 0 0 0 0 0 0 0 0 0 0 0 0 0 0 0 38 29 0 0 0 35 0 0 0 0 0 0 0 0 0 0 0 0 0 0 0 0 0 0 25 0 0 0 0 0 25 25 0 25 0 0 0 0 0 0 0 0 0 0 0 0 0 0 0 21 0 
		22 0 31 0 0 0 0 0 0 0 0 0 0 0 0 0 0 21 0 0 0 0 0 0 0 0 0 0 0 0 0 0 0 35 0 0 0 0 0 0 0 0 0 0 0 0 0 0 0 0 0 0 0 0 0 0 0 29 0 0 0 0 0 0 0 35 0 0 0 0 0 0 0 0 0 0 0 
		23 32 36 0 0 0 39 0 0 22 0 0 0 0 0 0 0 0 0 0 0 25 0 0 0 0 0 0 0 0 0 0 0 35 0 0 0 0 0 0 0 0 0 0 0 0 0 0 0 0 0 20 0 0 0 0 0 0 0 22 0 0 0 0 0 20 0 28 0 0 0 0 0 0 0 0 0 
		24 0 0 0 0 0 26 0 0 0 0 0 0 0 0 0 0 0 0 0 0 37 0 0 0 0 25 0 0 0 37 0 0 0 0 0 0 0 0 0 0 0 0 0 0 0 0 0 0 0 0 0 0 0 0 0 0 0 0 0 0 0 0 0 0 0 0 0 0 0 0 0 0 0 0 0 0 
		25 0 0 0 0 0 0 40 0 0 0 0 22 0 0 0 39 0 0 0 31 35 38 0 0 25 0 32 0 0 0 0 0 0 0 0 0 0 0 0 30 0 0 31 0 0 0 0 0 0 0 0 0 25 0 31 0 0 0 0 0 0 0 35 0 0 0 0 0 0 0 0 0 0 0 0 0 
		26 0 0 20 0 0 0 0 0 0 0 0 0 0 0 22 26 0 33 0 0 33 29 0 0 0 32 0 0 0 24 0 0 0 0 0 0 0 0 0 0 0 0 0 0 34 0 0 0 0 0 0 0 0 0 27 0 0 0 0 0 0 0 0 0 0 0 0 0 0 0 0 20 0 0 0 0 
		27 23 0 0 0 0 0 39 0 0 0 0 22 0 0 0 0 0 0 0 0 0 0 0 0 0 0 0 0 0 0 0 0 0 0 0 0 0 0 0 0 0 0 0 0 0 37 31 0 0 0 0 0 0 0 0 0 0 0 29 0 0 0 0 0 0 0 0 0 0 0 0 0 0 0 0 0 
		28 0 0 0 0 0 0 0 0 0 0 0 0 0 0 0 0 0 36 34 0 0 0 0 0 0 0 0 0 0 0 0 0 0 0 0 0 0 0 0 0 0 35 0 28 0 0 0 0 0 35 0 40 0 0 0 0 0 40 0 21 0 21 0 0 40 0 0 0 0 0 0 0 25 25 23 0 
		29 36 0 0 39 0 0 0 0 0 29 0 0 0 0 0 0 0 0 0 21 0 0 0 0 37 0 24 0 0 0 23 0 0 0 0 0 0 0 0 0 0 0 0 37 0 0 0 0 0 36 0 0 0 23 0 0 0 0 0 0 0 0 0 0 0 30 0 0 0 0 0 0 0 0 39 0 
		30 0 0 0 0 0 0 0 0 0 0 0 0 23 0 0 0 0 0 0 0 0 35 0 0 0 0 0 0 0 23 0 0 0 0 0 0 32 0 0 0 0 0 0 0 0 0 0 0 0 0 0 0 0 0 0 0 0 0 0 0 0 0 0 0 0 0 0 0 0 0 0 38 0 0 0 0 
		31 0 0 0 0 0 0 0 0 0 0 0 0 0 0 0 0 27 0 0 0 0 0 0 0 0 0 0 0 0 0 0 0 0 0 0 0 0 0 0 0 38 0 0 0 0 24 0 34 0 0 0 0 0 0 0 0 0 0 0 0 0 0 0 0 0 0 0 0 0 0 0 0 0 0 0 0 
		32 0 0 0 0 36 0 0 0 0 0 0 0 0 0 0 0 0 0 0 0 0 0 35 35 0 0 0 0 0 0 0 0 0 0 0 0 0 0 0 0 0 0 0 0 0 0 0 0 0 0 0 0 0 0 0 0 0 0 0 0 0 0 0 0 0 0 0 0 0 0 0 0 0 0 0 0 
		33 0 21 0 0 0 21 0 21 0 0 0 0 0 0 0 0 0 0 0 0 0 0 0 0 0 0 0 0 0 0 0 0 0 0 0 0 0 0 0 0 24 0 0 0 0 0 0 0 0 0 0 0 0 0 0 0 0 0 0 0 25 0 0 0 29 0 0 0 0 0 0 0 0 25 0 0 
		34 0 0 0 0 0 0 0 0 0 0 0 0 0 0 0 0 0 20 0 0 0 0 0 0 0 0 0 0 0 0 0 0 0 0 0 20 36 0 30 0 0 25 0 23 0 0 0 0 0 0 38 0 0 0 20 26 34 0 0 0 0 0 0 0 0 0 0 0 0 20 0 0 0 0 0 0 
		35 0 0 0 0 0 0 0 0 0 0 0 0 0 0 0 0 0 0 0 0 0 0 0 0 0 0 0 0 0 0 0 0 0 0 20 0 0 0 0 0 0 0 0 0 21 0 0 0 0 0 0 0 0 0 0 0 0 0 0 0 0 0 0 0 0 26 0 0 0 0 0 0 0 0 0 0 
		36 0 0 36 0 0 0 0 39 0 0 0 0 0 0 0 0 0 0 0 0 0 0 0 0 0 0 0 0 0 0 32 0 0 0 36 0 0 0 0 0 38 35 0 0 0 0 0 34 0 0 26 0 0 32 0 22 0 28 0 0 0 0 0 0 0 0 0 0 0 0 0 0 0 30 0 0 
		37 0 0 0 0 0 0 27 0 0 0 0 0 0 0 0 0 0 0 0 0 0 0 0 0 0 0 0 0 0 0 0 0 0 0 0 0 0 0 0 0 37 0 0 0 0 25 0 0 20 0 30 35 0 0 0 0 0 0 0 30 0 0 0 0 0 33 0 0 0 0 39 0 0 0 0 0 
		38 0 0 0 0 0 0 0 0 0 0 0 0 0 0 0 0 0 39 0 0 0 0 0 0 0 0 0 0 0 0 0 0 0 0 30 0 0 0 0 0 0 0 0 0 0 0 0 0 0 0 0 0 0 0 0 0 0 0 0 26 0 39 0 0 0 0 0 0 0 39 26 0 0 0 0 0 
		39 0 32 0 0 36 0 0 0 0 0 0 0 0 0 0 0 0 0 0 0 0 0 0 0 0 30 0 0 0 0 0 0 0 0 0 0 0 0 0 0 0 0 24 0 0 0 0 33 0 0 0 23 0 0 0 0 0 0 0 40 0 0 0 0 0 0 0 0 0 0 0 0 0 0 0 0 
		40 0 0 0 0 0 0 0 0 0 0 0 0 0 0 0 0 25 0 0 0 0 0 0 0 0 0 0 0 0 0 0 38 0 24 0 0 38 37 0 0 0 0 0 0 0 0 0 29 0 0 0 0 0 0 0 0 23 0 0 0 0 0 0 20 0 0 0 0 0 0 0 0 0 0 0 0 
		41 22 34 27 0 0 0 0 0 0 0 0 0 0 0 33 0 0 0 0 0 0 0 0 0 0 0 0 0 35 0 0 0 0 0 25 0 35 0 0 0 0 0 0 0 0 0 0 0 0 0 0 0 36 0 0 36 35 0 0 0 0 0 0 0 0 34 0 0 0 0 34 0 0 0 0 0 
		42 0 0 0 28 0 0 0 0 0 0 0 0 0 0 0 0 0 0 0 0 0 0 0 0 0 31 0 0 0 0 0 0 0 0 0 0 0 0 0 24 0 0 0 0 0 0 0 0 0 0 0 0 0 0 30 0 0 0 0 0 0 0 35 0 0 0 0 0 0 0 0 0 0 0 0 0 
		43 0 21 27 0 0 0 0 39 28 0 0 0 0 0 0 0 0 0 0 0 34 0 0 0 0 0 0 0 28 37 0 0 0 0 23 0 0 0 0 0 0 0 0 0 0 0 0 0 0 31 0 33 0 0 0 0 38 0 0 0 0 0 0 0 0 0 0 0 0 0 0 0 0 0 0 0 
		44 34 28 0 0 0 0 0 0 0 24 0 0 0 0 0 0 0 0 0 0 0 0 0 0 0 0 34 0 0 0 0 0 0 0 0 21 0 0 0 0 0 0 0 0 0 0 40 37 0 0 0 0 0 0 40 0 0 0 0 0 0 0 0 24 0 0 0 0 0 0 0 0 20 0 0 0 
		45 0 0 26 0 0 0 0 27 0 0 0 0 0 0 0 34 0 0 0 0 0 0 0 0 0 0 0 37 0 0 0 24 0 0 0 0 0 25 0 0 0 0 0 0 0 0 0 29 0 0 0 0 0 0 0 0 0 0 0 0 0 0 0 0 0 0 0 0 0 38 0 0 0 0 0 0 
		46 0 0 0 0 0 0 0 0 0 0 0 39 0 0 0 0 0 0 0 0 0 0 0 0 0 0 0 31 0 0 0 0 0 0 0 0 0 0 0 0 0 0 0 0 40 0 0 0 0 0 0 0 0 0 0 0 0 0 0 0 0 0 0 0 0 0 0 0 0 0 23 0 0 0 0 0 
		47 23 0 0 0 29 0 0 0 0 0 36 0 0 0 33 0 0 0 0 0 36 0 0 0 0 0 0 0 0 0 0 34 0 0 0 0 34 0 0 33 29 0 0 0 37 29 0 0 0 0 0 0 0 0 0 31 0 0 25 0 0 0 0 0 0 0 0 0 0 0 0 0 0 28 0 0 
		48 0 0 0 0 0 0 0 0 0 0 0 0 0 0 0 0 0 0 0 0 0 0 0 0 0 0 0 0 0 0 0 0 0 0 0 0 0 20 0 0 0 0 0 0 0 0 0 0 0 0 0 0 0 0 0 0 0 0 0 0 0 0 0 0 0 0 0 0 25 0 0 20 0 0 0 0 
		49 0 0 0 0 0 0 0 35 0 0 0 0 0 0 0 36 0 0 0 35 0 25 0 0 0 0 0 0 35 36 0 0 0 0 0 0 0 0 0 0 0 0 0 31 0 0 0 0 0 0 0 0 0 0 31 0 0 0 0 0 0 0 0 0 0 0 0 0 0 0 0 0 30 0 0 0 
		50 0 0 20 0 0 0 23 39 0 0 0 0 0 0 25 0 22 40 31 0 40 0 0 20 0 0 0 0 0 0 0 0 0 0 38 0 26 30 0 0 0 0 0 0 0 0 0 0 0 0 0 0 0 0 32 0 0 31 0 0 0 0 0 0 0 0 0 0 0 24 0 0 0 0 0 0 
		51 0 0 0 0 0 0 0 35 0 0 0 0 0 20 35 0 0 0 0 0 0 0 0 0 0 0 0 0 40 0 0 0 0 0 0 0 0 35 0 23 0 0 0 33 0 0 0 0 0 0 0 0 0 0 0 33 0 0 0 0 0 0 0 0 0 0 30 0 0 0 0 0 0 0 0 0 
		52 0 0 0 0 0 0 0 21 0 0 0 0 0 0 0 0 0 0 0 35 0 0 0 0 0 25 0 0 0 0 0 0 0 0 0 0 0 0 0 0 0 36 0 0 0 0 0 0 0 0 0 0 0 0 0 0 28 0 0 0 0 38 0 0 0 0 0 0 0 0 0 0 0 0 0 0 
		53 0 0 0 0 0 0 0 0 0 0 0 0 0 0 0 0 25 0 0 0 0 0 0 0 0 0 0 0 0 23 0 0 0 0 0 0 32 0 0 0 0 0 0 0 0 0 0 0 0 0 0 0 0 0 0 0 0 0 30 0 0 0 0 0 24 0 0 0 0 0 0 0 0 0 23 0 
		54 0 0 0 0 0 0 0 0 0 0 0 38 0 0 0 0 0 0 0 0 0 0 0 0 0 31 27 0 0 0 0 0 0 0 20 0 0 0 0 0 0 0 30 0 40 0 0 0 0 31 32 0 0 0 0 0 0 0 0 0 20 0 0 0 0 0 0 0 0 0 0 31 0 0 0 0 
		55 0 0 0 0 0 0 0 0 0 0 35 0 0 40 0 0 30 0 23 0 0 25 0 0 0 0 0 0 0 0 0 0 0 0 26 0 22 0 0 0 0 36 0 0 0 0 0 31 0 0 0 33 0 0 0 0 0 0 0 0 0 22 0 31 0 0 0 28 0 0 0 0 0 0 0 0 
		56 0 0 0 0 0 0 0 0 0 0 0 0 0 0 37 0 0 0 0 0 36 25 29 0 0 0 0 0 0 0 0 0 0 0 34 0 0 0 0 0 23 35 0 38 0 0 0 0 0 0 0 0 28 0 0 0 0 0 36 38 22 0 0 0 28 0 0 0 0 0 0 0 0 0 0 0 
		57 0 31 0 0 0 0 0 0 0 0 0 0 0 0 0 0 26 0 0 0 24 0 0 0 0 0 0 0 40 0 0 0 0 0 0 0 28 0 0 0 0 0 0 0 0 0 0 0 0 0 31 0 0 0 0 0 0 0 32 0 37 0 0 0 0 0 0 0 0 27 0 0 0 34 0 0 
		58 20 0 0 0 0 0 0 0 0 0 0 0 0 0 0 0 27 21 0 0 0 25 0 22 0 0 0 29 0 0 0 0 0 0 0 0 0 0 0 0 0 0 0 0 0 0 0 25 0 0 0 0 0 30 0 0 36 32 0 0 23 0 27 0 0 0 21 21 0 0 0 0 0 0 0 0 
		59 0 24 0 0 0 0 0 0 37 0 0 0 37 0 0 30 0 0 0 0 0 0 0 0 0 0 0 0 21 0 0 0 0 0 0 0 0 30 26 40 0 0 0 0 0 0 0 0 0 0 0 0 0 0 0 0 38 0 0 0 0 0 0 0 0 0 0 0 28 0 30 0 0 0 0 0 
		60 0 0 23 0 0 0 0 0 0 0 0 0 0 0 28 0 0 0 0 0 0 0 0 0 0 0 0 0 0 0 0 0 0 25 0 0 0 0 0 0 0 0 0 0 0 0 0 0 0 0 0 0 0 0 20 0 22 37 23 0 0 0 36 0 0 0 32 0 33 0 0 0 27 0 0 0 
		61 0 0 0 0 0 0 0 0 0 0 22 0 0 0 0 0 0 0 0 0 0 0 0 0 0 0 0 0 21 0 0 0 0 0 0 0 0 0 39 0 0 0 0 0 0 0 0 0 0 0 0 0 38 0 0 22 0 0 0 0 0 0 0 0 33 0 0 0 29 0 0 0 0 0 0 0 
		62 32 0 0 0 0 0 0 0 0 29 29 0 0 0 0 28 0 0 0 26 28 0 0 0 0 35 0 0 0 0 0 0 0 0 0 0 0 0 0 0 0 0 35 0 0 0 0 0 0 0 0 0 0 0 0 0 0 0 27 0 36 0 0 0 0 0 0 0 0 0 34 0 0 0 0 0 
		63 0 0 0 0 0 26 0 0 0 0 0 0 0 0 0 0 29 0 0 0 0 0 0 0 0 0 0 0 0 0 0 0 0 0 0 0 0 0 0 0 20 0 0 0 24 0 0 0 0 0 0 0 0 0 0 31 0 0 0 0 0 0 0 0 0 0 0 0 0 0 26 38 0 0 0 0 
		64 0 0 0 0 0 0 0 0 0 0 27 0 0 0 0 22 0 0 0 0 0 0 35 20 0 0 0 0 40 0 0 0 0 29 0 0 0 0 0 0 0 0 0 0 0 0 0 0 0 0 0 0 0 24 0 0 28 0 0 0 0 33 0 0 0 0 0 0 34 20 0 0 0 0 0 0 
		65 0 0 0 0 0 0 0 0 34 0 0 0 0 0 0 0 0 35 0 0 0 0 0 0 0 0 0 0 0 30 0 0 0 0 0 26 0 33 0 0 0 34 0 0 0 0 0 0 0 0 0 0 0 0 0 0 0 0 0 0 0 0 0 0 0 0 0 0 20 0 25 0 0 0 29 0 
		66 0 0 20 0 0 0 0 0 0 0 40 0 0 0 0 0 21 0 0 0 0 0 0 28 0 0 0 0 0 0 0 0 0 0 0 0 0 0 0 0 0 0 0 0 0 0 0 0 0 0 0 30 0 0 0 0 0 0 21 0 32 0 0 0 0 0 0 0 0 0 0 0 0 0 0 0 
		67 0 0 0 0 0 0 32 0 0 0 0 0 0 0 0 34 0 0 0 0 0 0 0 0 0 0 0 0 0 0 0 0 0 0 0 0 0 0 0 0 0 0 0 0 0 0 0 0 0 0 0 0 0 0 0 28 0 0 21 0 0 0 0 0 0 0 0 0 0 0 0 0 35 0 0 0 
		68 0 0 0 0 0 0 0 0 0 0 0 0 0 0 0 0 0 0 0 0 0 0 0 0 0 0 0 0 0 0 0 0 0 0 0 0 0 0 0 0 0 0 0 0 0 0 0 0 25 0 0 0 0 0 0 0 0 0 0 28 33 29 0 0 34 20 0 0 0 0 0 0 0 24 0 0 
		69 0 0 21 0 0 0 0 0 0 0 0 0 0 0 0 0 0 20 0 0 0 0 0 0 0 0 0 0 0 0 0 0 0 0 20 0 0 0 39 0 0 0 0 0 0 38 0 0 0 0 24 0 0 0 0 0 0 27 0 0 0 0 0 0 20 0 0 0 0 0 0 0 0 0 0 0 
		70 32 0 0 0 0 0 0 23 0 0 0 0 0 0 0 0 0 0 0 0 0 0 0 0 0 0 0 0 0 0 0 0 0 0 0 0 0 39 26 0 0 34 0 0 0 0 23 0 0 0 0 0 0 0 0 0 0 0 0 30 0 0 34 26 0 25 0 0 0 0 0 0 0 0 0 0 
		71 0 0 0 0 0 0 0 0 0 0 0 37 0 0 0 38 0 0 0 21 0 0 0 0 0 0 20 0 0 0 38 0 0 0 0 0 0 0 0 0 0 0 0 0 0 0 0 0 20 0 0 0 0 0 31 0 0 0 0 0 0 0 0 38 0 0 0 0 0 0 0 0 0 0 0 22 
		72 0 0 0 0 20 0 0 0 0 0 0 0 0 0 0 0 0 0 0 0 0 0 0 0 0 0 0 0 25 0 0 0 0 0 0 0 0 0 0 0 0 0 0 0 20 0 0 0 0 30 0 0 0 0 0 0 0 0 0 0 27 0 0 0 0 0 0 35 0 0 0 0 0 35 0 0 
		73 0 36 0 0 0 0 0 0 0 0 0 0 0 0 0 0 0 0 0 32 0 0 0 0 0 0 0 0 25 0 0 0 0 25 0 0 30 0 0 0 0 0 0 0 0 0 0 28 0 0 0 0 0 0 0 0 0 34 0 0 0 0 0 0 0 0 0 0 24 0 0 0 35 0 0 0 
		74 0 0 0 0 0 0 0 0 38 0 0 0 0 0 34 0 0 0 0 0 0 21 0 0 0 0 0 0 23 39 0 0 0 0 0 0 0 0 0 0 0 0 0 0 0 0 0 0 0 0 0 0 0 23 0 0 0 0 0 0 0 0 0 0 0 29 0 0 0 0 0 0 0 0 0 25 
		75 0 0 0 34 0 0 0 0 36 0 0 0 0 0 0 0 0 0 27 0 0 0 0 0 0 0 0 0 0 0 0 0 0 0 0 0 0 0 0 0 0 0 0 0 0 0 0 0 0 0 0 0 0 0 0 0 0 0 0 0 0 0 0 0 0 0 0 0 0 0 0 22 0 0 25 0 
;
